50
14173

638 610
879 972
884 960
460 589
366 806
365 105
675 146
766 532
260 780
353 566
719 107
296 702
500 571
521 636
255 925
762 295
440 978
769 352
790 722
835 61
343 610
166 313
57 821
72 869
377 95
903 404
63 886
927 643
640 405
382 171
996 754
217 746
530 520
770 709
710 712
754 404
914 196
408 64
234 992
184 132
882 232
873 754
404 494
501 292
136 817
20 14
439 810
630 207
672 8
247 14
